c Instanță aleatoare cu 80 de variabile, satisfiabilă
p cnf 80 20
1 5 -8 0
-2 3 7 0
-12 -4 9 0
10 -15 18 0
20 6 -19 0
-25 22 -30 0
27 -28 24 0
-35 33 36 0
-40 38 -42 0
41 -43 45 0
50 -47 48 0
-51 49 53 0
55 -56 -52 0
57 59 -60 0
61 -62 63 0
-65 66 -64 0
-68 67 -70 0
72 -74 75 0
-76 78 80 0
-79 77 73 0